NAME : X_30_seed_123_id_16
TYPE : CVRP
DIMENSION : 237
EDGE_WEIGHT_TYPE : EUC_2D
CAPACITY : 18
NODE_COORD_SECTION
1	0	0
2	829	900
3	402	508
4	973	879
5	262	636
6	270	57
7	945	469
8	527	223
9	799	165
10	415	71
11	184	292
12	234	186
13	159	378
14	183	349
15	741	740
16	770	627
17	49	601
18	113	487
19	731	636
20	671	105
21	900	454
22	77	76
23	79	220
24	591	205
25	743	189
26	986	855
27	857	592
28	535	203
29	74	28
30	761	216
31	899	71
32	636	967
33	284	427
34	686	182
35	491	488
36	344	892
37	894	841
38	597	835
39	284	941
40	828	933
41	989	699
42	355	555
43	409	50
44	533	184
45	619	773
46	545	816
47	375	13
48	635	618
49	853	718
50	816	950
51	418	886
52	450	975
53	814	285
54	937	818
55	39	15
56	336	445
57	674	298
58	443	833
59	588	72
60	577	504
61	499	969
62	763	652
63	545	335
64	277	745
65	723	350
66	592	461
67	571	696
68	779	436
69	362	51
70	358	565
71	353	211
72	946	458
73	669	286
74	580	856
75	587	319
76	726	303
77	240	894
78	156	405
79	632	786
80	647	683
81	997	731
82	827	206
83	635	295
84	189	379
85	410	97
86	875	303
87	224	300
88	432	641
89	67	104
90	170	527
91	162	218
92	586	594
93	336	110
94	850	650
95	82	951
96	689	139
97	544	809
98	96	144
99	661	493
100	865	971
101	303	507
102	927	260
103	334	175
104	196	71
105	894	106
106	875	954
107	576	234
108	267	528
109	121	876
110	512	270
111	705	917
112	154	81
113	615	818
114	82	944
115	727	582
116	895	852
117	46	30
118	859	950
119	266	866
120	498	429
121	402	190
122	666	112
123	74	683
124	665	270
125	522	787
126	588	413
127	335	191
128	509	619
129	260	145
130	597	994
131	574	847
132	96	756
133	245	313
134	277	697
135	211	808
136	73	313
137	516	78
138	252	153
139	179	726
140	818	484
141	711	72
142	718	148
143	438	475
144	886	513
145	745	581
146	804	120
147	493	70
148	145	870
149	755	834
150	594	304
151	118	478
152	392	918
153	720	269
154	797	239
155	3	978
156	636	638
157	786	734
158	230	722
159	184	762
160	462	80
161	399	621
162	504	612
163	461	899
164	913	272
165	125	31
166	197	820
167	260	679
168	964	724
169	843	218
170	736	847
171	730	969
172	311	654
173	7	134
174	26	982
175	982	200
176	788	855
177	849	465
178	112	446
179	439	837
180	339	298
181	358	7
182	133	709
183	454	10
184	943	244
185	25	979
186	23	199
187	572	671
188	702	392
189	955	918
190	204	964
191	717	500
192	940	881
193	279	705
194	2	367
195	700	361
196	140	751
197	782	692
198	992	326
199	554	500
200	782	778
201	606	322
202	10	642
203	473	526
204	221	290
205	541	832
206	822	697
207	407	52
208	266	647
209	40	136
210	95	550
211	560	692
212	882	444
213	590	770
214	395	463
215	3	743
216	420	158
217	868	890
218	390	375
219	681	722
220	524	498
221	498	261
222	661	955
223	95	826
224	801	537
225	818	336
226	505	177
227	329	426
228	163	153
229	140	733
230	13	10
231	956	273
232	213	918
233	484	6
234	65	920
235	742	599
236	362	724
237	946	144
DEMAND_SECTION
1	0
2	1
3	1
4	1
5	1
6	1
7	1
8	1
9	1
10	1
11	1
12	1
13	1
14	1
15	1
16	1
17	1
18	1
19	1
20	1
21	1
22	1
23	1
24	1
25	1
26	1
27	1
28	1
29	1
30	1
31	1
32	1
33	1
34	1
35	1
36	1
37	1
38	1
39	1
40	1
41	1
42	1
43	1
44	1
45	1
46	1
47	1
48	1
49	1
50	1
51	1
52	1
53	1
54	1
55	1
56	1
57	1
58	1
59	1
60	1
61	1
62	1
63	1
64	1
65	1
66	1
67	1
68	1
69	1
70	1
71	1
72	1
73	1
74	1
75	1
76	1
77	1
78	1
79	1
80	1
81	1
82	1
83	1
84	1
85	1
86	1
87	1
88	1
89	1
90	1
91	1
92	1
93	1
94	1
95	1
96	1
97	1
98	1
99	1
100	1
101	1
102	1
103	1
104	1
105	1
106	1
107	1
108	1
109	1
110	1
111	1
112	1
113	1
114	1
115	1
116	1
117	1
118	1
119	1
120	1
121	1
122	1
123	1
124	1
125	1
126	1
127	1
128	1
129	1
130	1
131	1
132	1
133	1
134	1
135	1
136	1
137	1
138	1
139	1
140	1
141	1
142	1
143	1
144	1
145	1
146	1
147	1
148	1
149	1
150	1
151	1
152	1
153	1
154	1
155	1
156	1
157	1
158	1
159	1
160	1
161	1
162	1
163	1
164	1
165	1
166	1
167	1
168	1
169	1
170	1
171	1
172	1
173	1
174	1
175	1
176	1
177	1
178	1
179	1
180	1
181	1
182	1
183	1
184	1
185	1
186	1
187	1
188	1
189	1
190	1
191	1
192	1
193	1
194	1
195	1
196	1
197	1
198	1
199	1
200	1
201	1
202	1
203	1
204	1
205	1
206	1
207	1
208	1
209	1
210	1
211	1
212	1
213	1
214	1
215	1
216	1
217	1
218	1
219	1
220	1
221	1
222	1
223	1
224	1
225	1
226	1
227	1
228	1
229	1
230	1
231	1
232	1
233	1
234	1
235	1
236	1
237	1
DEPOT_SECTION
1
-1
EOF
